
Gurobi 9.5.1 (linux64) logging started Tue Jun  7 19:54:15 2022

Set parameter LogFile to value "../results/logs/log_web-baidu-baike.e_3_50_2022_06_07_19_12.log"
Gurobi Optimizer version 9.5.1 build v9.5.1rc2 (linux64)
Thread count: 8 physical cores, 8 logical processors, using up to 8 threads
Optimize a model with 65003 rows, 4280396 columns and 1176195 nonzeros
Model fingerprint: 0x5976ac59
Variable types: 0 continuous, 4280396 integer (4280396 binary)
Coefficient statistics:
  Matrix range     [1e+00, 3e+00]
  Objective range  [1e+00, 1e+00]
  Bounds range     [1e+00, 1e+00]
  RHS range        [1e+00, 5e+01]
Found heuristic solution: objective 1277646.0000
Presolve removed 51055 rows and 4261407 columns
Presolve time: 2.19s
Presolved: 13948 rows, 18989 columns, 53415 nonzeros
Found heuristic solution: objective 1277746.0000
Variable types: 0 continuous, 18989 integer (17582 binary)

Root relaxation: objective 1.278518e+06, 7996 iterations, 0.06 seconds (0.07 work units)

    Nodes    |    Current Node    |     Objective Bounds      |     Work
 Expl Unexpl |  Obj  Depth IntInf | Incumbent    BestBd   Gap | It/Node Time

     0     0 1278518.40    0  976 1277746.00 1278518.40  0.06%     -    3s
H    0     0                    1277818.0000 1278518.40  0.05%     -    3s
H    0     0                    1277820.0000 1278518.40  0.05%     -    3s
     0     0 1278066.73    0  403 1277820.00 1278066.73  0.02%     -    3s
H    0     0                    1277834.0000 1278066.73  0.02%     -    4s
     0     0 1277955.13    0  400 1277834.00 1277955.13  0.01%     -    4s
     0     0 1277955.13    0  399 1277834.00 1277955.13  0.01%     -    4s
H    0     0                    1277836.0000 1277941.68  0.01%     -    4s
     0     0 1277941.68    0  286 1277836.00 1277941.68  0.01%     -    4s
H    0     0                    1277853.0000 1277941.68  0.01%     -    4s
     0     0 1277939.25    0  264 1277853.00 1277939.25  0.01%     -    4s
     0     0 1277939.25    0  265 1277853.00 1277939.25  0.01%     -    4s
     0     0 1277915.75    0  147 1277853.00 1277915.75  0.00%     -    4s
H    0     0                    1277866.0000 1277915.75  0.00%     -    5s
     0     0 1277914.50    0  149 1277866.00 1277914.50  0.00%     -    5s
     0     0 1277899.97    0  101 1277866.00 1277899.97  0.00%     -    5s
H    0     0                    1277884.0000 1277899.97  0.00%     -    5s
     0     0 1277899.47    0   89 1277884.00 1277899.47  0.00%     -    5s
     0     0 1277894.33    0   41 1277884.00 1277894.33  0.00%     -    5s
H    0     0                    1277888.0000 1277894.33  0.00%     -    5s
H    0     0                    1277891.0000 1277894.33  0.00%     -    5s
     0     0 1277893.00    0   15 1277891.00 1277893.00  0.00%     -    6s
H    0     0                    1277892.0000 1277893.00  0.00%     -    6s
     0     0 1277893.00    0    8 1277892.00 1277893.00  0.00%     -    6s
*    0     0               0    1277893.0000 1277893.00  0.00%     -    6s

Cutting planes:
  Gomory: 213
  Cover: 13
  Implied bound: 32
  MIR: 628
  StrongCG: 22
  GUB cover: 856
  Zero half: 89
  Mod-K: 2
  RLT: 48
  Relax-and-lift: 4

Explored 1 nodes (10306 simplex iterations) in 6.39 seconds (3.95 work units)
Thread count was 8 (of 8 available processors)

Solution count 10: 1.27789e+06 1.27789e+06 1.27789e+06 ... 1.27782e+06

Optimal solution found (tolerance 0.00e+00)
Best objective 1.277893000001e+06, best bound 1.277893000001e+06, gap 0.0000%
